Maximize
  - 2.7533933808255 edge_0_1_0_0 - 3.0901914729387 edge_0_2_0_0
   - 0.0813863939462 edge_0_3_0_0 - 0.2219341112835 edge_0_8_0_0
   + 0.2204963528380148 edge_1_2_0_0 + 1.311670482562411 edge_1_3_0_0
   + 0.11876178687282 edge_1_5_0_0 + 0.3719603649456283 edge_1_6_0_0
   + 0.3523352640959351 edge_2_1_0_0 + 0.202374518617907 edge_2_3_0_0
   + 0.6798435954009132 edge_2_4_0_0 + 1.6468309386828 edge_2_5_0_0
   + 1.289944924628027 edge_2_6_0_0 + 0.336330827919342 edge_2_7_0_0
   + 0.3649760804755035 edge_2_8_0_0 + 0.0445325791561301 edge_2_10_0_0
   - 0.3084124992502144 edge_2_12_0_0 - 0.6172834647549029 edge_2_13_0_0
   - 0.6183032417846734 edge_2_15_0_0 - 0.5809466621448522 edge_2_16_0_0
   - 0.8093829719556648 edge_2_18_0_0 - 0.7455595079665241 edge_2_20_0_0
   - 0.2433922122316732 edge_2_21_0_0 - 1.042252340945538 edge_2_23_0_0
   + 2.615593542110271 edge_3_1_0_0 + 1.949265788173752 edge_3_2_0_0
   + 1.369104240248117 edge_3_4_0_0 + 1.7639891593331 edge_3_5_0_0
   + 1.2450552718568 edge_3_6_0_0 + 0.2945846390333615 edge_3_7_0_0
   + 1.128072433724457 edge_3_8_0_0 + 0.8570460770648723 edge_3_10_0_0
   + 0.0648891817422765 edge_3_11_0_0 + 0.2561118474336119 edge_3_13_0_0
   - 1.917702583152305 edge_3_15_0_0 - 1.09712177860425 edge_3_16_0_0
   - 0.8570460980509422 edge_3_17_0_0 + 0.6568978546445876 edge_3_18_0_0
   - 0.5723572149866746 edge_3_19_0_0 - 0.473740270078954 edge_3_20_0_0
   + 0.3999805587797732 edge_3_21_0_0 - 1.490400207879775 edge_3_22_0_0
   - 0.4372388137074525 edge_3_23_0_0 - 0.0321703207392498 edge_3_26_0_0
   - 0.1274394482578244 edge_3_28_0_0 + 3.084487012840313 edge_3_29_0_0
   + 0.3418109141523836 edge_4_1_0_0 + 0.4977201255581032 edge_4_2_0_0
   + 0.5165366675534501 edge_4_5_0_0 + 0.3819248076926554 edge_4_6_0_0
   - 0.4284812742914887 edge_4_7_0_0 - 0.306649876846138 edge_4_8_0_0
   - 0.403165992624619 edge_4_10_0_0 + 0.090357063267366 edge_5_1_0_0
   + 0.39672960348996 edge_5_2_0_0 - 0.45887360688603 edge_5_3_0_0
   + 3.0662549995107 edge_5_4_0_0 + 1.891282020955 edge_5_6_0_0
   + 0.59860707575554 edge_5_7_0_0 + 0.8095860313035 edge_5_8_0_0
   + 0.2979349821239 edge_5_10_0_0 - 0.45751574348982 edge_5_11_0_0
   - 0.2515893019213 edge_5_12_0_0 - 0.35287091531096 edge_5_13_0_0
   - 0.4301764053873 edge_5_15_0_0 - 0.55278061368075 edge_5_16_0_0
   - 0.733606931723 edge_5_18_0_0 - 0.22590910668865 edge_5_21_0_0
   - 0.8489661234372148 edge_6_4_0_0 - 0.64218254947002 edge_6_5_0_0
   - 0.3511933188054012 edge_7_3_0_0 + 0.6133885597403489 edge_7_4_0_0
   + 0.3095101973737768 edge_7_6_0_0 + 0.1966408441976042 edge_7_8_0_0
   - 0.2448083916566556 edge_7_10_0_0 - 0.9990813376785215 edge_7_13_0_0
   + 0.0871177817329076 edge_8_1_0_0 + 0.5203227577049842 edge_8_2_0_0
   + 0.4027226787259192 edge_8_3_0_0 + 0.16616927480425 edge_8_4_0_0
   + 0.071327039809575 edge_8_5_0_0 + 0.8629352866446606 edge_8_6_0_0
   + 2.668927030802824 edge_8_7_0_0 + 2.727697456953143 edge_8_10_0_0
   + 0.0131859755802418 edge_8_11_0_0 + 0.2414422625351166 edge_8_12_0_0
   + 1.62935323287513 edge_8_13_0_0 - 0.6933486241027146 edge_8_15_0_0
   - 0.4906398927431054 edge_8_16_0_0 - 0.7683367770406107 edge_8_17_0_0
   + 0.6548849452980904 edge_8_18_0_0 - 1.154016648075865 edge_8_19_0_0
   - 0.1189275995994479 edge_8_20_0_0 + 0.4855476323295776 edge_8_21_0_0
   - 1.743714635961477 edge_8_22_0_0 - 0.408681346472369 edge_8_23_0_0
   - 0.0496488720076346 edge_8_28_0_0 + 2.814577364799902 edge_8_29_0_0
   - 0.5713800433574554 edge_10_3_0_0 + 0.8457690699213928 edge_10_7_0_0
   + 0.7458629324482213 edge_10_8_0_0 + 0.5193376006760022 edge_10_11_0_0
   + 0.8913997741521104 edge_10_12_0_0 + 1.728839481348025 edge_10_13_0_0
   + 0.2384157600132036 edge_10_15_0_0 + 0.4743088862208352 edge_10_16_0_0
   + 0.4454007638149926 edge_10_17_0_0 + 0.942989028778405 edge_10_18_0_0
   + 0.1569845445978268 edge_10_20_0_0 + 3.70567777659212 edge_10_29_0_0
   + 0.4139023113937599 edge_11_10_0_0 + 0.7214140618661391 edge_11_12_0_0
   + 0.8557159220740195 edge_11_13_0_0 + 0.0169549268124602 edge_11_15_0_0
   + 0.7102219391627377 edge_12_11_0_0 + 0.0751047701682454 edge_12_15_0_0
   - 0.6910789960152212 edge_13_1_0_0 - 0.8305225900070006 edge_13_2_0_0
   - 0.2709277753670983 edge_13_3_0_0 - 1.410652175218897 edge_13_4_0_0
   - 0.4308448965972 edge_13_5_0_0 + 0.4498788070131404 edge_13_7_0_0
   + 0.4899628530111071 edge_13_10_0_0 + 2.348111358445639 edge_13_11_0_0
   + 3.495030856084893 edge_13_12_0_0 + 0.5221168834638479 edge_13_15_0_0
   + 0.9426100855145852 edge_13_16_0_0 + 0.9992910313139949 edge_13_17_0_0
   + 1.926084183027185 edge_13_18_0_0 + 0.4786463729725529 edge_13_19_0_0
   + 0.1874114534908204 edge_13_20_0_0 + 0.6092545442656242 edge_13_21_0_0
   - 0.4477944313442907 edge_13_22_0_0 - 0.3528024954918108 edge_13_23_0_0
   + 3.211877494734016 edge_13_29_0_0 + 0.0118729082954725 edge_15_11_0_0
   + 0.3200913602172397 edge_15_12_0_0 + 0.4381166659468349 edge_15_13_0_0
   + 1.020446870741625 edge_15_16_0_0 + 0.3925381596858493 edge_15_17_0_0
   + 1.135172043005548 edge_15_18_0_0 + 1.215679878290638 edge_15_19_0_0
   + 0.447551159353272 edge_15_20_0_0 + 0.5108138858337457 edge_15_21_0_0
   + 0.00557087722484101 edge_15_23_0_0 + 0.6829993521653324 edge_15_26_0_0
   - 0.1705949603863323 edge_15_28_0_0 - 0.1172559588676032 edge_16_11_0_0
   + 0.6088207140486509 edge_16_15_0_0 + 0.0783659258070847 edge_16_17_0_0
   + 0.093845564111711 edge_16_19_0_0 - 0.3523630834504644 edge_17_16_0_0
   - 0.4773199856133674 edge_18_1_0_0 - 0.4265693465713247 edge_18_2_0_0
   - 0.6701642544337312 edge_18_3_0_0 - 0.7625593322465585 edge_18_4_0_0
   - 0.6243539833899999 edge_18_5_0_0 + 0.2267936974285818 edge_18_6_0_0
   + 0.4988176676208648 edge_18_7_0_0 - 0.5804854893095817 edge_18_8_0_0
   + 0.2326829295477734 edge_18_10_0_0 + 0.2722260609189903 edge_18_11_0_0
   + 0.1562650684862181 edge_18_12_0_0 + 0.3373424437030441 edge_18_13_0_0
   + 1.778444857858079 edge_18_15_0_0 + 2.332051434415591 edge_18_16_0_0
   + 3.021281829816033 edge_18_17_0_0 + 0.8848951419316849 edge_18_19_0_0
   + 1.762356055332554 edge_18_20_0_0 + 1.638012377922272 edge_18_21_0_0
   + 0.6585237692324271 edge_18_22_0_0 + 1.19631376126493 edge_18_23_0_0
   + 0.8244979375904916 edge_18_26_0_0 + 1.303480264417349 edge_18_28_0_0
   + 3.003074647591315 edge_18_29_0_0 - 0.1739308515925397 edge_19_18_0_0
   + 0.615281996751799 edge_19_20_0_0 + 0.0149808702542767 edge_19_21_0_0
   - 0.4557436346682691 edge_19_22_0_0 - 0.6709034837555542 edge_19_23_0_0
   - 0.8707595799905424 edge_19_26_0_0 + 0.2300618638913464 edge_20_11_0_0
   + 1.002649972215737 edge_20_17_0_0 + 2.719302754356939 edge_20_19_0_0
   + 1.888288726295647 edge_20_21_0_0 + 1.426995728984061 edge_20_22_0_0
   + 2.113784154790462 edge_20_23_0_0 + 1.006629743777472 edge_20_26_0_0
   + 2.217332811967131 edge_20_28_0_0 + 1.670541144793295 edge_20_29_0_0
   - 0.8178778606169027 edge_21_19_0_0 - 0.3189335489061718 edge_21_20_0_0
   + 0.6326310851807663 edge_21_22_0_0 + 0.6026447086039134 edge_22_23_0_0
   - 0.2587449530022546 edge_22_26_0_0 + 0.4599538465581117 edge_22_28_0_0
   - 0.6291882108058682 edge_23_12_0_0 + 0.407156822197705 edge_23_16_0_0
   + 0.7102244585563986 edge_23_17_0_0 - 0.106328224721012 edge_23_18_0_0
   + 0.8554970665733493 edge_23_19_0_0 + 0.579565204478246 edge_23_20_0_0
   - 0.0263711057310518 edge_23_21_0_0 + 1.429283414980312 edge_23_22_0_0
   + 0.68087459317 edge_23_26_0_0 + 2.123357218398703 edge_23_28_0_0
   + 2.207196181545418 edge_23_29_0_0 + 0.4289617825812723 edge_26_22_0_0
   + 1.393401962824244 edge_26_28_0_0 - 0.4948394111404635 edge_28_19_0_0
   + 0.3982430871598638 edge_28_22_0_0 + 0.2718316439001188 edge_28_23_0_0
   + 2.65860809119879 edge_28_26_0_0 + 2.31691847083295 edge_28_29_0_0
   - 1.004837645427678 edge_29_26_0_0 - 1.307029137360284 edge_29_28_0_0
Subject To
 one_parent_1: edge_0_1_0_0 + edge_2_1_0_0 + edge_3_1_0_0 + edge_4_1_0_0
   + edge_5_1_0_0 + edge_8_1_0_0 + edge_13_1_0_0 + edge_18_1_0_0 = 1
 consume_one_flow_unit_1: flow_0_1_0_0 - flow_1_2_0_0 - flow_1_3_0_0
   - flow_1_5_0_0 - flow_1_6_0_0 + flow_2_1_0_0 + flow_3_1_0_0
   + flow_4_1_0_0 + flow_5_1_0_0 + flow_8_1_0_0 + flow_13_1_0_0
   + flow_18_1_0_0 = 1
 one_parent_2: edge_0_2_0_0 + edge_1_2_0_0 + edge_3_2_0_0 + edge_4_2_0_0
   + edge_5_2_0_0 + edge_8_2_0_0 + edge_13_2_0_0 + edge_18_2_0_0 = 1
 consume_one_flow_unit_2: flow_0_2_0_0 + flow_1_2_0_0 - flow_2_1_0_0
   - flow_2_3_0_0 - flow_2_4_0_0 - flow_2_5_0_0 - flow_2_6_0_0
   - flow_2_7_0_0 - flow_2_8_0_0 - flow_2_10_0_0 - flow_2_12_0_0
   - flow_2_13_0_0 - flow_2_15_0_0 - flow_2_16_0_0 - flow_2_18_0_0
   - flow_2_20_0_0 - flow_2_21_0_0 - flow_2_23_0_0 + flow_3_2_0_0
   + flow_4_2_0_0 + flow_5_2_0_0 + flow_8_2_0_0 + flow_13_2_0_0
   + flow_18_2_0_0 = 1
 one_parent_3: edge_0_3_0_0 + edge_1_3_0_0 + edge_2_3_0_0 + edge_5_3_0_0
   + edge_7_3_0_0 + edge_8_3_0_0 + edge_10_3_0_0 + edge_13_3_0_0
   + edge_18_3_0_0 = 1
 consume_one_flow_unit_3: flow_0_3_0_0 + flow_1_3_0_0 + flow_2_3_0_0
   - flow_3_1_0_0 - flow_3_2_0_0 - flow_3_4_0_0 - flow_3_5_0_0
   - flow_3_6_0_0 - flow_3_7_0_0 - flow_3_8_0_0 - flow_3_10_0_0
   - flow_3_11_0_0 - flow_3_13_0_0 - flow_3_15_0_0 - flow_3_16_0_0
   - flow_3_17_0_0 - flow_3_18_0_0 - flow_3_19_0_0 - flow_3_20_0_0
   - flow_3_21_0_0 - flow_3_22_0_0 - flow_3_23_0_0 - flow_3_26_0_0
   - flow_3_28_0_0 - flow_3_29_0_0 + flow_5_3_0_0 + flow_7_3_0_0
   + flow_8_3_0_0 + flow_10_3_0_0 + flow_13_3_0_0 + flow_18_3_0_0 = 1
 one_parent_4: edge_2_4_0_0 + edge_3_4_0_0 + edge_5_4_0_0 + edge_6_4_0_0
   + edge_7_4_0_0 + edge_8_4_0_0 + edge_13_4_0_0 + edge_18_4_0_0 = 1
 consume_one_flow_unit_4: flow_2_4_0_0 + flow_3_4_0_0 - flow_4_1_0_0
   - flow_4_2_0_0 - flow_4_5_0_0 - flow_4_6_0_0 - flow_4_7_0_0
   - flow_4_8_0_0 - flow_4_10_0_0 + flow_5_4_0_0 + flow_6_4_0_0
   + flow_7_4_0_0 + flow_8_4_0_0 + flow_13_4_0_0 + flow_18_4_0_0 = 1
 one_parent_5: edge_1_5_0_0 + edge_2_5_0_0 + edge_3_5_0_0 + edge_4_5_0_0
   + edge_6_5_0_0 + edge_8_5_0_0 + edge_13_5_0_0 + edge_18_5_0_0 = 1
 consume_one_flow_unit_5: flow_1_5_0_0 + flow_2_5_0_0 + flow_3_5_0_0
   + flow_4_5_0_0 - flow_5_1_0_0 - flow_5_2_0_0 - flow_5_3_0_0
   - flow_5_4_0_0 - flow_5_6_0_0 - flow_5_7_0_0 - flow_5_8_0_0
   - flow_5_10_0_0 - flow_5_11_0_0 - flow_5_12_0_0 - flow_5_13_0_0
   - flow_5_15_0_0 - flow_5_16_0_0 - flow_5_18_0_0 - flow_5_21_0_0
   + flow_6_5_0_0 + flow_8_5_0_0 + flow_13_5_0_0 + flow_18_5_0_0 = 1
 one_parent_6: edge_1_6_0_0 + edge_2_6_0_0 + edge_3_6_0_0 + edge_4_6_0_0
   + edge_5_6_0_0 + edge_7_6_0_0 + edge_8_6_0_0 + edge_18_6_0_0 = 1
 consume_one_flow_unit_6: flow_1_6_0_0 + flow_2_6_0_0 + flow_3_6_0_0
   + flow_4_6_0_0 + flow_5_6_0_0 - flow_6_4_0_0 - flow_6_5_0_0
   + flow_7_6_0_0 + flow_8_6_0_0 + flow_18_6_0_0 = 1
 one_parent_7: edge_2_7_0_0 + edge_3_7_0_0 + edge_4_7_0_0 + edge_5_7_0_0
   + edge_8_7_0_0 + edge_10_7_0_0 + edge_13_7_0_0 + edge_18_7_0_0 = 1
 consume_one_flow_unit_7: flow_2_7_0_0 + flow_3_7_0_0 + flow_4_7_0_0
   + flow_5_7_0_0 - flow_7_3_0_0 - flow_7_4_0_0 - flow_7_6_0_0
   - flow_7_8_0_0 - flow_7_10_0_0 - flow_7_13_0_0 + flow_8_7_0_0
   + flow_10_7_0_0 + flow_13_7_0_0 + flow_18_7_0_0 = 1
 one_parent_8: edge_0_8_0_0 + edge_2_8_0_0 + edge_3_8_0_0 + edge_4_8_0_0
   + edge_5_8_0_0 + edge_7_8_0_0 + edge_10_8_0_0 + edge_18_8_0_0 = 1
 consume_one_flow_unit_8: flow_0_8_0_0 + flow_2_8_0_0 + flow_3_8_0_0
   + flow_4_8_0_0 + flow_5_8_0_0 + flow_7_8_0_0 - flow_8_1_0_0
   - flow_8_2_0_0 - flow_8_3_0_0 - flow_8_4_0_0 - flow_8_5_0_0
   - flow_8_6_0_0 - flow_8_7_0_0 - flow_8_10_0_0 - flow_8_11_0_0
   - flow_8_12_0_0 - flow_8_13_0_0 - flow_8_15_0_0 - flow_8_16_0_0
   - flow_8_17_0_0 - flow_8_18_0_0 - flow_8_19_0_0 - flow_8_20_0_0
   - flow_8_21_0_0 - flow_8_22_0_0 - flow_8_23_0_0 - flow_8_28_0_0
   - flow_8_29_0_0 + flow_10_8_0_0 + flow_18_8_0_0 = 1
 one_parent_9: = 1
 consume_one_flow_unit_9: = 1
 one_parent_10: edge_2_10_0_0 + edge_3_10_0_0 + edge_4_10_0_0
   + edge_5_10_0_0 + edge_7_10_0_0 + edge_8_10_0_0 + edge_11_10_0_0
   + edge_13_10_0_0 + edge_18_10_0_0 = 1
 consume_one_flow_unit_10: flow_2_10_0_0 + flow_3_10_0_0 + flow_4_10_0_0
   + flow_5_10_0_0 + flow_7_10_0_0 + flow_8_10_0_0 - flow_10_3_0_0
   - flow_10_7_0_0 - flow_10_8_0_0 - flow_10_11_0_0 - flow_10_12_0_0
   - flow_10_13_0_0 - flow_10_15_0_0 - flow_10_16_0_0 - flow_10_17_0_0
   - flow_10_18_0_0 - flow_10_20_0_0 - flow_10_29_0_0 + flow_11_10_0_0
   + flow_13_10_0_0 + flow_18_10_0_0 = 1
 one_parent_11: edge_3_11_0_0 + edge_5_11_0_0 + edge_8_11_0_0
   + edge_10_11_0_0 + edge_12_11_0_0 + edge_13_11_0_0 + edge_15_11_0_0
   + edge_16_11_0_0 + edge_18_11_0_0 + edge_20_11_0_0 = 1
 consume_one_flow_unit_11: flow_3_11_0_0 + flow_5_11_0_0 + flow_8_11_0_0
   + flow_10_11_0_0 - flow_11_10_0_0 - flow_11_12_0_0 - flow_11_13_0_0
   - flow_11_15_0_0 + flow_12_11_0_0 + flow_13_11_0_0 + flow_15_11_0_0
   + flow_16_11_0_0 + flow_18_11_0_0 + flow_20_11_0_0 = 1
 one_parent_12: edge_2_12_0_0 + edge_5_12_0_0 + edge_8_12_0_0
   + edge_10_12_0_0 + edge_11_12_0_0 + edge_13_12_0_0 + edge_15_12_0_0
   + edge_18_12_0_0 + edge_23_12_0_0 = 1
 consume_one_flow_unit_12: flow_2_12_0_0 + flow_5_12_0_0 + flow_8_12_0_0
   + flow_10_12_0_0 + flow_11_12_0_0 - flow_12_11_0_0 - flow_12_15_0_0
   + flow_13_12_0_0 + flow_15_12_0_0 + flow_18_12_0_0 + flow_23_12_0_0 = 1
 one_parent_13: edge_2_13_0_0 + edge_3_13_0_0 + edge_5_13_0_0
   + edge_7_13_0_0 + edge_8_13_0_0 + edge_10_13_0_0 + edge_11_13_0_0
   + edge_15_13_0_0 + edge_18_13_0_0 = 1
 consume_one_flow_unit_13: flow_2_13_0_0 + flow_3_13_0_0 + flow_5_13_0_0
   + flow_7_13_0_0 + flow_8_13_0_0 + flow_10_13_0_0 + flow_11_13_0_0
   - flow_13_1_0_0 - flow_13_2_0_0 - flow_13_3_0_0 - flow_13_4_0_0
   - flow_13_5_0_0 - flow_13_7_0_0 - flow_13_10_0_0 - flow_13_11_0_0
   - flow_13_12_0_0 - flow_13_15_0_0 - flow_13_16_0_0 - flow_13_17_0_0
   - flow_13_18_0_0 - flow_13_19_0_0 - flow_13_20_0_0 - flow_13_21_0_0
   - flow_13_22_0_0 - flow_13_23_0_0 - flow_13_29_0_0 + flow_15_13_0_0
   + flow_18_13_0_0 = 1
 one_parent_14: = 1
 consume_one_flow_unit_14: = 1
 one_parent_15: edge_2_15_0_0 + edge_3_15_0_0 + edge_5_15_0_0
   + edge_8_15_0_0 + edge_10_15_0_0 + edge_11_15_0_0 + edge_12_15_0_0
   + edge_13_15_0_0 + edge_16_15_0_0 + edge_18_15_0_0 = 1
 consume_one_flow_unit_15: flow_2_15_0_0 + flow_3_15_0_0 + flow_5_15_0_0
   + flow_8_15_0_0 + flow_10_15_0_0 + flow_11_15_0_0 + flow_12_15_0_0
   + flow_13_15_0_0 - flow_15_11_0_0 - flow_15_12_0_0 - flow_15_13_0_0
   - flow_15_16_0_0 - flow_15_17_0_0 - flow_15_18_0_0 - flow_15_19_0_0
   - flow_15_20_0_0 - flow_15_21_0_0 - flow_15_23_0_0 - flow_15_26_0_0
   - flow_15_28_0_0 + flow_16_15_0_0 + flow_18_15_0_0 = 1
 one_parent_16: edge_2_16_0_0 + edge_3_16_0_0 + edge_5_16_0_0
   + edge_8_16_0_0 + edge_10_16_0_0 + edge_13_16_0_0 + edge_15_16_0_0
   + edge_17_16_0_0 + edge_18_16_0_0 + edge_23_16_0_0 = 1
 consume_one_flow_unit_16: flow_2_16_0_0 + flow_3_16_0_0 + flow_5_16_0_0
   + flow_8_16_0_0 + flow_10_16_0_0 + flow_13_16_0_0 + flow_15_16_0_0
   - flow_16_11_0_0 - flow_16_15_0_0 - flow_16_17_0_0 - flow_16_19_0_0
   + flow_17_16_0_0 + flow_18_16_0_0 + flow_23_16_0_0 = 1
 one_parent_17: edge_3_17_0_0 + edge_8_17_0_0 + edge_10_17_0_0
   + edge_13_17_0_0 + edge_15_17_0_0 + edge_16_17_0_0 + edge_18_17_0_0
   + edge_20_17_0_0 + edge_23_17_0_0 = 1
 consume_one_flow_unit_17: flow_3_17_0_0 + flow_8_17_0_0 + flow_10_17_0_0
   + flow_13_17_0_0 + flow_15_17_0_0 + flow_16_17_0_0 - flow_17_16_0_0
   + flow_18_17_0_0 + flow_20_17_0_0 + flow_23_17_0_0 = 1
 one_parent_18: edge_2_18_0_0 + edge_3_18_0_0 + edge_5_18_0_0
   + edge_8_18_0_0 + edge_10_18_0_0 + edge_13_18_0_0 + edge_15_18_0_0
   + edge_19_18_0_0 + edge_23_18_0_0 = 1
 consume_one_flow_unit_18: flow_2_18_0_0 + flow_3_18_0_0 + flow_5_18_0_0
   + flow_8_18_0_0 + flow_10_18_0_0 + flow_13_18_0_0 + flow_15_18_0_0
   - flow_18_1_0_0 - flow_18_2_0_0 - flow_18_3_0_0 - flow_18_4_0_0
   - flow_18_5_0_0 - flow_18_6_0_0 - flow_18_7_0_0 - flow_18_8_0_0
   - flow_18_10_0_0 - flow_18_11_0_0 - flow_18_12_0_0 - flow_18_13_0_0
   - flow_18_15_0_0 - flow_18_16_0_0 - flow_18_17_0_0 - flow_18_19_0_0
   - flow_18_20_0_0 - flow_18_21_0_0 - flow_18_22_0_0 - flow_18_23_0_0
   - flow_18_26_0_0 - flow_18_28_0_0 - flow_18_29_0_0 + flow_19_18_0_0
   + flow_23_18_0_0 = 1
 one_parent_19: edge_3_19_0_0 + edge_8_19_0_0 + edge_13_19_0_0
   + edge_15_19_0_0 + edge_16_19_0_0 + edge_18_19_0_0 + edge_20_19_0_0
   + edge_21_19_0_0 + edge_23_19_0_0 + edge_28_19_0_0 = 1
 consume_one_flow_unit_19: flow_3_19_0_0 + flow_8_19_0_0 + flow_13_19_0_0
   + flow_15_19_0_0 + flow_16_19_0_0 + flow_18_19_0_0 - flow_19_18_0_0
   - flow_19_20_0_0 - flow_19_21_0_0 - flow_19_22_0_0 - flow_19_23_0_0
   - flow_19_26_0_0 + flow_20_19_0_0 + flow_21_19_0_0 + flow_23_19_0_0
   + flow_28_19_0_0 = 1
 one_parent_20: edge_2_20_0_0 + edge_3_20_0_0 + edge_8_20_0_0
   + edge_10_20_0_0 + edge_13_20_0_0 + edge_15_20_0_0 + edge_18_20_0_0
   + edge_19_20_0_0 + edge_21_20_0_0 + edge_23_20_0_0 = 1
 consume_one_flow_unit_20: flow_2_20_0_0 + flow_3_20_0_0 + flow_8_20_0_0
   + flow_10_20_0_0 + flow_13_20_0_0 + flow_15_20_0_0 + flow_18_20_0_0
   + flow_19_20_0_0 - flow_20_11_0_0 - flow_20_17_0_0 - flow_20_19_0_0
   - flow_20_21_0_0 - flow_20_22_0_0 - flow_20_23_0_0 - flow_20_26_0_0
   - flow_20_28_0_0 - flow_20_29_0_0 + flow_21_20_0_0 + flow_23_20_0_0 = 1
 one_parent_21: edge_2_21_0_0 + edge_3_21_0_0 + edge_5_21_0_0
   + edge_8_21_0_0 + edge_13_21_0_0 + edge_15_21_0_0 + edge_18_21_0_0
   + edge_19_21_0_0 + edge_20_21_0_0 + edge_23_21_0_0 = 1
 consume_one_flow_unit_21: flow_2_21_0_0 + flow_3_21_0_0 + flow_5_21_0_0
   + flow_8_21_0_0 + flow_13_21_0_0 + flow_15_21_0_0 + flow_18_21_0_0
   + flow_19_21_0_0 + flow_20_21_0_0 - flow_21_19_0_0 - flow_21_20_0_0
   - flow_21_22_0_0 + flow_23_21_0_0 = 1
 one_parent_22: edge_3_22_0_0 + edge_8_22_0_0 + edge_13_22_0_0
   + edge_18_22_0_0 + edge_19_22_0_0 + edge_20_22_0_0 + edge_21_22_0_0
   + edge_23_22_0_0 + edge_26_22_0_0 + edge_28_22_0_0 = 1
 consume_one_flow_unit_22: flow_3_22_0_0 + flow_8_22_0_0 + flow_13_22_0_0
   + flow_18_22_0_0 + flow_19_22_0_0 + flow_20_22_0_0 + flow_21_22_0_0
   - flow_22_23_0_0 - flow_22_26_0_0 - flow_22_28_0_0 + flow_23_22_0_0
   + flow_26_22_0_0 + flow_28_22_0_0 = 1
 one_parent_23: edge_2_23_0_0 + edge_3_23_0_0 + edge_8_23_0_0
   + edge_13_23_0_0 + edge_15_23_0_0 + edge_18_23_0_0 + edge_19_23_0_0
   + edge_20_23_0_0 + edge_22_23_0_0 + edge_28_23_0_0 = 1
 consume_one_flow_unit_23: flow_2_23_0_0 + flow_3_23_0_0 + flow_8_23_0_0
   + flow_13_23_0_0 + flow_15_23_0_0 + flow_18_23_0_0 + flow_19_23_0_0
   + flow_20_23_0_0 + flow_22_23_0_0 - flow_23_12_0_0 - flow_23_16_0_0
   - flow_23_17_0_0 - flow_23_18_0_0 - flow_23_19_0_0 - flow_23_20_0_0
   - flow_23_21_0_0 - flow_23_22_0_0 - flow_23_26_0_0 - flow_23_28_0_0
   - flow_23_29_0_0 + flow_28_23_0_0 = 1
 one_parent_24: = 1
 consume_one_flow_unit_24: = 1
 one_parent_25: = 1
 consume_one_flow_unit_25: = 1
 one_parent_26: edge_3_26_0_0 + edge_15_26_0_0 + edge_18_26_0_0
   + edge_19_26_0_0 + edge_20_26_0_0 + edge_22_26_0_0 + edge_23_26_0_0
   + edge_28_26_0_0 + edge_29_26_0_0 = 1
 consume_one_flow_unit_26: flow_3_26_0_0 + flow_15_26_0_0 + flow_18_26_0_0
   + flow_19_26_0_0 + flow_20_26_0_0 + flow_22_26_0_0 + flow_23_26_0_0
   - flow_26_22_0_0 - flow_26_28_0_0 + flow_28_26_0_0 + flow_29_26_0_0 = 1
 one_parent_27: = 1
 consume_one_flow_unit_27: = 1
 one_parent_28: edge_3_28_0_0 + edge_8_28_0_0 + edge_15_28_0_0
   + edge_18_28_0_0 + edge_20_28_0_0 + edge_22_28_0_0 + edge_23_28_0_0
   + edge_26_28_0_0 + edge_29_28_0_0 = 1
 consume_one_flow_unit_28: flow_3_28_0_0 + flow_8_28_0_0 + flow_15_28_0_0
   + flow_18_28_0_0 + flow_20_28_0_0 + flow_22_28_0_0 + flow_23_28_0_0
   + flow_26_28_0_0 - flow_28_19_0_0 - flow_28_22_0_0 - flow_28_23_0_0
   - flow_28_26_0_0 - flow_28_29_0_0 + flow_29_28_0_0 = 1
 one_parent_29: edge_3_29_0_0 + edge_8_29_0_0 + edge_10_29_0_0
   + edge_13_29_0_0 + edge_18_29_0_0 + edge_20_29_0_0 + edge_23_29_0_0
   + edge_28_29_0_0 = 1
 consume_one_flow_unit_29: flow_3_29_0_0 + flow_8_29_0_0 + flow_10_29_0_0
   + flow_13_29_0_0 + flow_18_29_0_0 + flow_20_29_0_0 + flow_23_29_0_0
   + flow_28_29_0_0 - flow_29_26_0_0 - flow_29_28_0_0 = 1
 root_flow: flow_0_1_0_0 + flow_0_2_0_0 + flow_0_3_0_0 + flow_0_8_0_0 = 29
 inactive_no_flow_0_1_0_0: flow_0_1_0_0 - 1000 edge_0_1_0_0 <= 0
 inactive_no_flow_0_2_0_0: flow_0_2_0_0 - 1000 edge_0_2_0_0 <= 0
 inactive_no_flow_0_3_0_0: flow_0_3_0_0 - 1000 edge_0_3_0_0 <= 0
 inactive_no_flow_0_8_0_0: flow_0_8_0_0 - 1000 edge_0_8_0_0 <= 0
 inactive_no_flow_1_2_0_0: flow_1_2_0_0 - 1000 edge_1_2_0_0 <= 0
 inactive_no_flow_1_3_0_0: flow_1_3_0_0 - 1000 edge_1_3_0_0 <= 0
 inactive_no_flow_1_5_0_0: flow_1_5_0_0 - 1000 edge_1_5_0_0 <= 0
 inactive_no_flow_1_6_0_0: flow_1_6_0_0 - 1000 edge_1_6_0_0 <= 0
 inactive_no_flow_2_1_0_0: flow_2_1_0_0 - 1000 edge_2_1_0_0 <= 0
 inactive_no_flow_2_3_0_0: flow_2_3_0_0 - 1000 edge_2_3_0_0 <= 0
 inactive_no_flow_2_4_0_0: flow_2_4_0_0 - 1000 edge_2_4_0_0 <= 0
 inactive_no_flow_2_5_0_0: flow_2_5_0_0 - 1000 edge_2_5_0_0 <= 0
 inactive_no_flow_2_6_0_0: flow_2_6_0_0 - 1000 edge_2_6_0_0 <= 0
 inactive_no_flow_2_7_0_0: flow_2_7_0_0 - 1000 edge_2_7_0_0 <= 0
 inactive_no_flow_2_8_0_0: flow_2_8_0_0 - 1000 edge_2_8_0_0 <= 0
 inactive_no_flow_2_10_0_0: flow_2_10_0_0 - 1000 edge_2_10_0_0 <= 0
 inactive_no_flow_2_12_0_0: flow_2_12_0_0 - 1000 edge_2_12_0_0 <= 0
 inactive_no_flow_2_13_0_0: flow_2_13_0_0 - 1000 edge_2_13_0_0 <= 0
 inactive_no_flow_2_15_0_0: flow_2_15_0_0 - 1000 edge_2_15_0_0 <= 0
 inactive_no_flow_2_16_0_0: flow_2_16_0_0 - 1000 edge_2_16_0_0 <= 0
 inactive_no_flow_2_18_0_0: flow_2_18_0_0 - 1000 edge_2_18_0_0 <= 0
 inactive_no_flow_2_20_0_0: flow_2_20_0_0 - 1000 edge_2_20_0_0 <= 0
 inactive_no_flow_2_21_0_0: flow_2_21_0_0 - 1000 edge_2_21_0_0 <= 0
 inactive_no_flow_2_23_0_0: flow_2_23_0_0 - 1000 edge_2_23_0_0 <= 0
 inactive_no_flow_3_1_0_0: flow_3_1_0_0 - 1000 edge_3_1_0_0 <= 0
 inactive_no_flow_3_2_0_0: flow_3_2_0_0 - 1000 edge_3_2_0_0 <= 0
 inactive_no_flow_3_4_0_0: flow_3_4_0_0 - 1000 edge_3_4_0_0 <= 0
 inactive_no_flow_3_5_0_0: flow_3_5_0_0 - 1000 edge_3_5_0_0 <= 0
 inactive_no_flow_3_6_0_0: flow_3_6_0_0 - 1000 edge_3_6_0_0 <= 0
 inactive_no_flow_3_7_0_0: flow_3_7_0_0 - 1000 edge_3_7_0_0 <= 0
 inactive_no_flow_3_8_0_0: flow_3_8_0_0 - 1000 edge_3_8_0_0 <= 0
 inactive_no_flow_3_10_0_0: flow_3_10_0_0 - 1000 edge_3_10_0_0 <= 0
 inactive_no_flow_3_11_0_0: flow_3_11_0_0 - 1000 edge_3_11_0_0 <= 0
 inactive_no_flow_3_13_0_0: flow_3_13_0_0 - 1000 edge_3_13_0_0 <= 0
 inactive_no_flow_3_15_0_0: flow_3_15_0_0 - 1000 edge_3_15_0_0 <= 0
 inactive_no_flow_3_16_0_0: flow_3_16_0_0 - 1000 edge_3_16_0_0 <= 0
 inactive_no_flow_3_17_0_0: flow_3_17_0_0 - 1000 edge_3_17_0_0 <= 0
 inactive_no_flow_3_18_0_0: flow_3_18_0_0 - 1000 edge_3_18_0_0 <= 0
 inactive_no_flow_3_19_0_0: flow_3_19_0_0 - 1000 edge_3_19_0_0 <= 0
 inactive_no_flow_3_20_0_0: flow_3_20_0_0 - 1000 edge_3_20_0_0 <= 0
 inactive_no_flow_3_21_0_0: flow_3_21_0_0 - 1000 edge_3_21_0_0 <= 0
 inactive_no_flow_3_22_0_0: flow_3_22_0_0 - 1000 edge_3_22_0_0 <= 0
 inactive_no_flow_3_23_0_0: flow_3_23_0_0 - 1000 edge_3_23_0_0 <= 0
 inactive_no_flow_3_26_0_0: flow_3_26_0_0 - 1000 edge_3_26_0_0 <= 0
 inactive_no_flow_3_28_0_0: flow_3_28_0_0 - 1000 edge_3_28_0_0 <= 0
 inactive_no_flow_3_29_0_0: flow_3_29_0_0 - 1000 edge_3_29_0_0 <= 0
 inactive_no_flow_4_1_0_0: flow_4_1_0_0 - 1000 edge_4_1_0_0 <= 0
 inactive_no_flow_4_2_0_0: flow_4_2_0_0 - 1000 edge_4_2_0_0 <= 0
 inactive_no_flow_4_5_0_0: flow_4_5_0_0 - 1000 edge_4_5_0_0 <= 0
 inactive_no_flow_4_6_0_0: flow_4_6_0_0 - 1000 edge_4_6_0_0 <= 0
 inactive_no_flow_4_7_0_0: flow_4_7_0_0 - 1000 edge_4_7_0_0 <= 0
 inactive_no_flow_4_8_0_0: flow_4_8_0_0 - 1000 edge_4_8_0_0 <= 0
 inactive_no_flow_4_10_0_0: flow_4_10_0_0 - 1000 edge_4_10_0_0 <= 0
 inactive_no_flow_5_1_0_0: flow_5_1_0_0 - 1000 edge_5_1_0_0 <= 0
 inactive_no_flow_5_2_0_0: flow_5_2_0_0 - 1000 edge_5_2_0_0 <= 0
 inactive_no_flow_5_3_0_0: flow_5_3_0_0 - 1000 edge_5_3_0_0 <= 0
 inactive_no_flow_5_4_0_0: flow_5_4_0_0 - 1000 edge_5_4_0_0 <= 0
 inactive_no_flow_5_6_0_0: flow_5_6_0_0 - 1000 edge_5_6_0_0 <= 0
 inactive_no_flow_5_7_0_0: flow_5_7_0_0 - 1000 edge_5_7_0_0 <= 0
 inactive_no_flow_5_8_0_0: flow_5_8_0_0 - 1000 edge_5_8_0_0 <= 0
 inactive_no_flow_5_10_0_0: flow_5_10_0_0 - 1000 edge_5_10_0_0 <= 0
 inactive_no_flow_5_11_0_0: flow_5_11_0_0 - 1000 edge_5_11_0_0 <= 0
 inactive_no_flow_5_12_0_0: flow_5_12_0_0 - 1000 edge_5_12_0_0 <= 0
 inactive_no_flow_5_13_0_0: flow_5_13_0_0 - 1000 edge_5_13_0_0 <= 0
 inactive_no_flow_5_15_0_0: flow_5_15_0_0 - 1000 edge_5_15_0_0 <= 0
 inactive_no_flow_5_16_0_0: flow_5_16_0_0 - 1000 edge_5_16_0_0 <= 0
 inactive_no_flow_5_18_0_0: flow_5_18_0_0 - 1000 edge_5_18_0_0 <= 0
 inactive_no_flow_5_21_0_0: flow_5_21_0_0 - 1000 edge_5_21_0_0 <= 0
 inactive_no_flow_6_4_0_0: flow_6_4_0_0 - 1000 edge_6_4_0_0 <= 0
 inactive_no_flow_6_5_0_0: flow_6_5_0_0 - 1000 edge_6_5_0_0 <= 0
 inactive_no_flow_7_3_0_0: flow_7_3_0_0 - 1000 edge_7_3_0_0 <= 0
 inactive_no_flow_7_4_0_0: flow_7_4_0_0 - 1000 edge_7_4_0_0 <= 0
 inactive_no_flow_7_6_0_0: flow_7_6_0_0 - 1000 edge_7_6_0_0 <= 0
 inactive_no_flow_7_8_0_0: flow_7_8_0_0 - 1000 edge_7_8_0_0 <= 0
 inactive_no_flow_7_10_0_0: flow_7_10_0_0 - 1000 edge_7_10_0_0 <= 0
 inactive_no_flow_7_13_0_0: flow_7_13_0_0 - 1000 edge_7_13_0_0 <= 0
 inactive_no_flow_8_1_0_0: flow_8_1_0_0 - 1000 edge_8_1_0_0 <= 0
 inactive_no_flow_8_2_0_0: flow_8_2_0_0 - 1000 edge_8_2_0_0 <= 0
 inactive_no_flow_8_3_0_0: flow_8_3_0_0 - 1000 edge_8_3_0_0 <= 0
 inactive_no_flow_8_4_0_0: flow_8_4_0_0 - 1000 edge_8_4_0_0 <= 0
 inactive_no_flow_8_5_0_0: flow_8_5_0_0 - 1000 edge_8_5_0_0 <= 0
 inactive_no_flow_8_6_0_0: flow_8_6_0_0 - 1000 edge_8_6_0_0 <= 0
 inactive_no_flow_8_7_0_0: flow_8_7_0_0 - 1000 edge_8_7_0_0 <= 0
 inactive_no_flow_8_10_0_0: flow_8_10_0_0 - 1000 edge_8_10_0_0 <= 0
 inactive_no_flow_8_11_0_0: flow_8_11_0_0 - 1000 edge_8_11_0_0 <= 0
 inactive_no_flow_8_12_0_0: flow_8_12_0_0 - 1000 edge_8_12_0_0 <= 0
 inactive_no_flow_8_13_0_0: flow_8_13_0_0 - 1000 edge_8_13_0_0 <= 0
 inactive_no_flow_8_15_0_0: flow_8_15_0_0 - 1000 edge_8_15_0_0 <= 0
 inactive_no_flow_8_16_0_0: flow_8_16_0_0 - 1000 edge_8_16_0_0 <= 0
 inactive_no_flow_8_17_0_0: flow_8_17_0_0 - 1000 edge_8_17_0_0 <= 0
 inactive_no_flow_8_18_0_0: flow_8_18_0_0 - 1000 edge_8_18_0_0 <= 0
 inactive_no_flow_8_19_0_0: flow_8_19_0_0 - 1000 edge_8_19_0_0 <= 0
 inactive_no_flow_8_20_0_0: flow_8_20_0_0 - 1000 edge_8_20_0_0 <= 0
 inactive_no_flow_8_21_0_0: flow_8_21_0_0 - 1000 edge_8_21_0_0 <= 0
 inactive_no_flow_8_22_0_0: flow_8_22_0_0 - 1000 edge_8_22_0_0 <= 0
 inactive_no_flow_8_23_0_0: flow_8_23_0_0 - 1000 edge_8_23_0_0 <= 0
 inactive_no_flow_8_28_0_0: flow_8_28_0_0 - 1000 edge_8_28_0_0 <= 0
 inactive_no_flow_8_29_0_0: flow_8_29_0_0 - 1000 edge_8_29_0_0 <= 0
 inactive_no_flow_10_3_0_0: flow_10_3_0_0 - 1000 edge_10_3_0_0 <= 0
 inactive_no_flow_10_7_0_0: flow_10_7_0_0 - 1000 edge_10_7_0_0 <= 0
 inactive_no_flow_10_8_0_0: flow_10_8_0_0 - 1000 edge_10_8_0_0 <= 0
 inactive_no_flow_10_11_0_0: flow_10_11_0_0 - 1000 edge_10_11_0_0 <= 0
 inactive_no_flow_10_12_0_0: flow_10_12_0_0 - 1000 edge_10_12_0_0 <= 0
 inactive_no_flow_10_13_0_0: flow_10_13_0_0 - 1000 edge_10_13_0_0 <= 0
 inactive_no_flow_10_15_0_0: flow_10_15_0_0 - 1000 edge_10_15_0_0 <= 0
 inactive_no_flow_10_16_0_0: flow_10_16_0_0 - 1000 edge_10_16_0_0 <= 0
 inactive_no_flow_10_17_0_0: flow_10_17_0_0 - 1000 edge_10_17_0_0 <= 0
 inactive_no_flow_10_18_0_0: flow_10_18_0_0 - 1000 edge_10_18_0_0 <= 0
 inactive_no_flow_10_20_0_0: flow_10_20_0_0 - 1000 edge_10_20_0_0 <= 0
 inactive_no_flow_10_29_0_0: flow_10_29_0_0 - 1000 edge_10_29_0_0 <= 0
 inactive_no_flow_11_10_0_0: flow_11_10_0_0 - 1000 edge_11_10_0_0 <= 0
 inactive_no_flow_11_12_0_0: flow_11_12_0_0 - 1000 edge_11_12_0_0 <= 0
 inactive_no_flow_11_13_0_0: flow_11_13_0_0 - 1000 edge_11_13_0_0 <= 0
 inactive_no_flow_11_15_0_0: flow_11_15_0_0 - 1000 edge_11_15_0_0 <= 0
 inactive_no_flow_12_11_0_0: flow_12_11_0_0 - 1000 edge_12_11_0_0 <= 0
 inactive_no_flow_12_15_0_0: flow_12_15_0_0 - 1000 edge_12_15_0_0 <= 0
 inactive_no_flow_13_1_0_0: flow_13_1_0_0 - 1000 edge_13_1_0_0 <= 0
 inactive_no_flow_13_2_0_0: flow_13_2_0_0 - 1000 edge_13_2_0_0 <= 0
 inactive_no_flow_13_3_0_0: flow_13_3_0_0 - 1000 edge_13_3_0_0 <= 0
 inactive_no_flow_13_4_0_0: flow_13_4_0_0 - 1000 edge_13_4_0_0 <= 0
 inactive_no_flow_13_5_0_0: flow_13_5_0_0 - 1000 edge_13_5_0_0 <= 0
 inactive_no_flow_13_7_0_0: flow_13_7_0_0 - 1000 edge_13_7_0_0 <= 0
 inactive_no_flow_13_10_0_0: flow_13_10_0_0 - 1000 edge_13_10_0_0 <= 0
 inactive_no_flow_13_11_0_0: flow_13_11_0_0 - 1000 edge_13_11_0_0 <= 0
 inactive_no_flow_13_12_0_0: flow_13_12_0_0 - 1000 edge_13_12_0_0 <= 0
 inactive_no_flow_13_15_0_0: flow_13_15_0_0 - 1000 edge_13_15_0_0 <= 0
 inactive_no_flow_13_16_0_0: flow_13_16_0_0 - 1000 edge_13_16_0_0 <= 0
 inactive_no_flow_13_17_0_0: flow_13_17_0_0 - 1000 edge_13_17_0_0 <= 0
 inactive_no_flow_13_18_0_0: flow_13_18_0_0 - 1000 edge_13_18_0_0 <= 0
 inactive_no_flow_13_19_0_0: flow_13_19_0_0 - 1000 edge_13_19_0_0 <= 0
 inactive_no_flow_13_20_0_0: flow_13_20_0_0 - 1000 edge_13_20_0_0 <= 0
 inactive_no_flow_13_21_0_0: flow_13_21_0_0 - 1000 edge_13_21_0_0 <= 0
 inactive_no_flow_13_22_0_0: flow_13_22_0_0 - 1000 edge_13_22_0_0 <= 0
 inactive_no_flow_13_23_0_0: flow_13_23_0_0 - 1000 edge_13_23_0_0 <= 0
 inactive_no_flow_13_29_0_0: flow_13_29_0_0 - 1000 edge_13_29_0_0 <= 0
 inactive_no_flow_15_11_0_0: flow_15_11_0_0 - 1000 edge_15_11_0_0 <= 0
 inactive_no_flow_15_12_0_0: flow_15_12_0_0 - 1000 edge_15_12_0_0 <= 0
 inactive_no_flow_15_13_0_0: flow_15_13_0_0 - 1000 edge_15_13_0_0 <= 0
 inactive_no_flow_15_16_0_0: flow_15_16_0_0 - 1000 edge_15_16_0_0 <= 0
 inactive_no_flow_15_17_0_0: flow_15_17_0_0 - 1000 edge_15_17_0_0 <= 0
 inactive_no_flow_15_18_0_0: flow_15_18_0_0 - 1000 edge_15_18_0_0 <= 0
 inactive_no_flow_15_19_0_0: flow_15_19_0_0 - 1000 edge_15_19_0_0 <= 0
 inactive_no_flow_15_20_0_0: flow_15_20_0_0 - 1000 edge_15_20_0_0 <= 0
 inactive_no_flow_15_21_0_0: flow_15_21_0_0 - 1000 edge_15_21_0_0 <= 0
 inactive_no_flow_15_23_0_0: flow_15_23_0_0 - 1000 edge_15_23_0_0 <= 0
 inactive_no_flow_15_26_0_0: flow_15_26_0_0 - 1000 edge_15_26_0_0 <= 0
 inactive_no_flow_15_28_0_0: flow_15_28_0_0 - 1000 edge_15_28_0_0 <= 0
 inactive_no_flow_16_11_0_0: flow_16_11_0_0 - 1000 edge_16_11_0_0 <= 0
 inactive_no_flow_16_15_0_0: flow_16_15_0_0 - 1000 edge_16_15_0_0 <= 0
 inactive_no_flow_16_17_0_0: flow_16_17_0_0 - 1000 edge_16_17_0_0 <= 0
 inactive_no_flow_16_19_0_0: flow_16_19_0_0 - 1000 edge_16_19_0_0 <= 0
 inactive_no_flow_17_16_0_0: flow_17_16_0_0 - 1000 edge_17_16_0_0 <= 0
 inactive_no_flow_18_1_0_0: flow_18_1_0_0 - 1000 edge_18_1_0_0 <= 0
 inactive_no_flow_18_2_0_0: flow_18_2_0_0 - 1000 edge_18_2_0_0 <= 0
 inactive_no_flow_18_3_0_0: flow_18_3_0_0 - 1000 edge_18_3_0_0 <= 0
 inactive_no_flow_18_4_0_0: flow_18_4_0_0 - 1000 edge_18_4_0_0 <= 0
 inactive_no_flow_18_5_0_0: flow_18_5_0_0 - 1000 edge_18_5_0_0 <= 0
 inactive_no_flow_18_6_0_0: flow_18_6_0_0 - 1000 edge_18_6_0_0 <= 0
 inactive_no_flow_18_7_0_0: flow_18_7_0_0 - 1000 edge_18_7_0_0 <= 0
 inactive_no_flow_18_8_0_0: flow_18_8_0_0 - 1000 edge_18_8_0_0 <= 0
 inactive_no_flow_18_10_0_0: flow_18_10_0_0 - 1000 edge_18_10_0_0 <= 0
 inactive_no_flow_18_11_0_0: flow_18_11_0_0 - 1000 edge_18_11_0_0 <= 0
 inactive_no_flow_18_12_0_0: flow_18_12_0_0 - 1000 edge_18_12_0_0 <= 0
 inactive_no_flow_18_13_0_0: flow_18_13_0_0 - 1000 edge_18_13_0_0 <= 0
 inactive_no_flow_18_15_0_0: flow_18_15_0_0 - 1000 edge_18_15_0_0 <= 0
 inactive_no_flow_18_16_0_0: flow_18_16_0_0 - 1000 edge_18_16_0_0 <= 0
 inactive_no_flow_18_17_0_0: flow_18_17_0_0 - 1000 edge_18_17_0_0 <= 0
 inactive_no_flow_18_19_0_0: flow_18_19_0_0 - 1000 edge_18_19_0_0 <= 0
 inactive_no_flow_18_20_0_0: flow_18_20_0_0 - 1000 edge_18_20_0_0 <= 0
 inactive_no_flow_18_21_0_0: flow_18_21_0_0 - 1000 edge_18_21_0_0 <= 0
 inactive_no_flow_18_22_0_0: flow_18_22_0_0 - 1000 edge_18_22_0_0 <= 0
 inactive_no_flow_18_23_0_0: flow_18_23_0_0 - 1000 edge_18_23_0_0 <= 0
 inactive_no_flow_18_26_0_0: flow_18_26_0_0 - 1000 edge_18_26_0_0 <= 0
 inactive_no_flow_18_28_0_0: flow_18_28_0_0 - 1000 edge_18_28_0_0 <= 0
 inactive_no_flow_18_29_0_0: flow_18_29_0_0 - 1000 edge_18_29_0_0 <= 0
 inactive_no_flow_19_18_0_0: flow_19_18_0_0 - 1000 edge_19_18_0_0 <= 0
 inactive_no_flow_19_20_0_0: flow_19_20_0_0 - 1000 edge_19_20_0_0 <= 0
 inactive_no_flow_19_21_0_0: flow_19_21_0_0 - 1000 edge_19_21_0_0 <= 0
 inactive_no_flow_19_22_0_0: flow_19_22_0_0 - 1000 edge_19_22_0_0 <= 0
 inactive_no_flow_19_23_0_0: flow_19_23_0_0 - 1000 edge_19_23_0_0 <= 0
 inactive_no_flow_19_26_0_0: flow_19_26_0_0 - 1000 edge_19_26_0_0 <= 0
 inactive_no_flow_20_11_0_0: flow_20_11_0_0 - 1000 edge_20_11_0_0 <= 0
 inactive_no_flow_20_17_0_0: flow_20_17_0_0 - 1000 edge_20_17_0_0 <= 0
 inactive_no_flow_20_19_0_0: flow_20_19_0_0 - 1000 edge_20_19_0_0 <= 0
 inactive_no_flow_20_21_0_0: flow_20_21_0_0 - 1000 edge_20_21_0_0 <= 0
 inactive_no_flow_20_22_0_0: flow_20_22_0_0 - 1000 edge_20_22_0_0 <= 0
 inactive_no_flow_20_23_0_0: flow_20_23_0_0 - 1000 edge_20_23_0_0 <= 0
 inactive_no_flow_20_26_0_0: flow_20_26_0_0 - 1000 edge_20_26_0_0 <= 0
 inactive_no_flow_20_28_0_0: flow_20_28_0_0 - 1000 edge_20_28_0_0 <= 0
 inactive_no_flow_20_29_0_0: flow_20_29_0_0 - 1000 edge_20_29_0_0 <= 0
 inactive_no_flow_21_19_0_0: flow_21_19_0_0 - 1000 edge_21_19_0_0 <= 0
 inactive_no_flow_21_20_0_0: flow_21_20_0_0 - 1000 edge_21_20_0_0 <= 0
 inactive_no_flow_21_22_0_0: flow_21_22_0_0 - 1000 edge_21_22_0_0 <= 0
 inactive_no_flow_22_23_0_0: flow_22_23_0_0 - 1000 edge_22_23_0_0 <= 0
 inactive_no_flow_22_26_0_0: flow_22_26_0_0 - 1000 edge_22_26_0_0 <= 0
 inactive_no_flow_22_28_0_0: flow_22_28_0_0 - 1000 edge_22_28_0_0 <= 0
 inactive_no_flow_23_12_0_0: flow_23_12_0_0 - 1000 edge_23_12_0_0 <= 0
 inactive_no_flow_23_16_0_0: flow_23_16_0_0 - 1000 edge_23_16_0_0 <= 0
 inactive_no_flow_23_17_0_0: flow_23_17_0_0 - 1000 edge_23_17_0_0 <= 0
 inactive_no_flow_23_18_0_0: flow_23_18_0_0 - 1000 edge_23_18_0_0 <= 0
 inactive_no_flow_23_19_0_0: flow_23_19_0_0 - 1000 edge_23_19_0_0 <= 0
 inactive_no_flow_23_20_0_0: flow_23_20_0_0 - 1000 edge_23_20_0_0 <= 0
 inactive_no_flow_23_21_0_0: flow_23_21_0_0 - 1000 edge_23_21_0_0 <= 0
 inactive_no_flow_23_22_0_0: flow_23_22_0_0 - 1000 edge_23_22_0_0 <= 0
 inactive_no_flow_23_26_0_0: flow_23_26_0_0 - 1000 edge_23_26_0_0 <= 0
 inactive_no_flow_23_28_0_0: flow_23_28_0_0 - 1000 edge_23_28_0_0 <= 0
 inactive_no_flow_23_29_0_0: flow_23_29_0_0 - 1000 edge_23_29_0_0 <= 0
 inactive_no_flow_26_22_0_0: flow_26_22_0_0 - 1000 edge_26_22_0_0 <= 0
 inactive_no_flow_26_28_0_0: flow_26_28_0_0 - 1000 edge_26_28_0_0 <= 0
 inactive_no_flow_28_19_0_0: flow_28_19_0_0 - 1000 edge_28_19_0_0 <= 0
 inactive_no_flow_28_22_0_0: flow_28_22_0_0 - 1000 edge_28_22_0_0 <= 0
 inactive_no_flow_28_23_0_0: flow_28_23_0_0 - 1000 edge_28_23_0_0 <= 0
 inactive_no_flow_28_26_0_0: flow_28_26_0_0 - 1000 edge_28_26_0_0 <= 0
 inactive_no_flow_28_29_0_0: flow_28_29_0_0 - 1000 edge_28_29_0_0 <= 0
 inactive_no_flow_29_26_0_0: flow_29_26_0_0 - 1000 edge_29_26_0_0 <= 0
 inactive_no_flow_29_28_0_0: flow_29_28_0_0 - 1000 edge_29_28_0_0 <= 0
Bounds
Binaries
 edge_0_1_0_0 edge_0_2_0_0 edge_0_3_0_0 edge_0_8_0_0 edge_1_2_0_0
 edge_1_3_0_0 edge_1_5_0_0 edge_1_6_0_0 edge_2_1_0_0 edge_2_3_0_0
 edge_2_4_0_0 edge_2_5_0_0 edge_2_6_0_0 edge_2_7_0_0 edge_2_8_0_0
 edge_2_10_0_0 edge_2_12_0_0 edge_2_13_0_0 edge_2_15_0_0 edge_2_16_0_0
 edge_2_18_0_0 edge_2_20_0_0 edge_2_21_0_0 edge_2_23_0_0 edge_3_1_0_0
 edge_3_2_0_0 edge_3_4_0_0 edge_3_5_0_0 edge_3_6_0_0 edge_3_7_0_0
 edge_3_8_0_0 edge_3_10_0_0 edge_3_11_0_0 edge_3_13_0_0 edge_3_15_0_0
 edge_3_16_0_0 edge_3_17_0_0 edge_3_18_0_0 edge_3_19_0_0 edge_3_20_0_0
 edge_3_21_0_0 edge_3_22_0_0 edge_3_23_0_0 edge_3_26_0_0 edge_3_28_0_0
 edge_3_29_0_0 edge_4_1_0_0 edge_4_2_0_0 edge_4_5_0_0 edge_4_6_0_0
 edge_4_7_0_0 edge_4_8_0_0 edge_4_10_0_0 edge_5_1_0_0 edge_5_2_0_0
 edge_5_3_0_0 edge_5_4_0_0 edge_5_6_0_0 edge_5_7_0_0 edge_5_8_0_0
 edge_5_10_0_0 edge_5_11_0_0 edge_5_12_0_0 edge_5_13_0_0 edge_5_15_0_0
 edge_5_16_0_0 edge_5_18_0_0 edge_5_21_0_0 edge_6_4_0_0 edge_6_5_0_0
 edge_7_3_0_0 edge_7_4_0_0 edge_7_6_0_0 edge_7_8_0_0 edge_7_10_0_0
 edge_7_13_0_0 edge_8_1_0_0 edge_8_2_0_0 edge_8_3_0_0 edge_8_4_0_0
 edge_8_5_0_0 edge_8_6_0_0 edge_8_7_0_0 edge_8_10_0_0 edge_8_11_0_0
 edge_8_12_0_0 edge_8_13_0_0 edge_8_15_0_0 edge_8_16_0_0 edge_8_17_0_0
 edge_8_18_0_0 edge_8_19_0_0 edge_8_20_0_0 edge_8_21_0_0 edge_8_22_0_0
 edge_8_23_0_0 edge_8_28_0_0 edge_8_29_0_0 edge_10_3_0_0 edge_10_7_0_0
 edge_10_8_0_0 edge_10_11_0_0 edge_10_12_0_0 edge_10_13_0_0 edge_10_15_0_0
 edge_10_16_0_0 edge_10_17_0_0 edge_10_18_0_0 edge_10_20_0_0 edge_10_29_0_0
 edge_11_10_0_0 edge_11_12_0_0 edge_11_13_0_0 edge_11_15_0_0 edge_12_11_0_0
 edge_12_15_0_0 edge_13_1_0_0 edge_13_2_0_0 edge_13_3_0_0 edge_13_4_0_0
 edge_13_5_0_0 edge_13_7_0_0 edge_13_10_0_0 edge_13_11_0_0 edge_13_12_0_0
 edge_13_15_0_0 edge_13_16_0_0 edge_13_17_0_0 edge_13_18_0_0 edge_13_19_0_0
 edge_13_20_0_0 edge_13_21_0_0 edge_13_22_0_0 edge_13_23_0_0 edge_13_29_0_0
 edge_15_11_0_0 edge_15_12_0_0 edge_15_13_0_0 edge_15_16_0_0 edge_15_17_0_0
 edge_15_18_0_0 edge_15_19_0_0 edge_15_20_0_0 edge_15_21_0_0 edge_15_23_0_0
 edge_15_26_0_0 edge_15_28_0_0 edge_16_11_0_0 edge_16_15_0_0 edge_16_17_0_0
 edge_16_19_0_0 edge_17_16_0_0 edge_18_1_0_0 edge_18_2_0_0 edge_18_3_0_0
 edge_18_4_0_0 edge_18_5_0_0 edge_18_6_0_0 edge_18_7_0_0 edge_18_8_0_0
 edge_18_10_0_0 edge_18_11_0_0 edge_18_12_0_0 edge_18_13_0_0 edge_18_15_0_0
 edge_18_16_0_0 edge_18_17_0_0 edge_18_19_0_0 edge_18_20_0_0 edge_18_21_0_0
 edge_18_22_0_0 edge_18_23_0_0 edge_18_26_0_0 edge_18_28_0_0 edge_18_29_0_0
 edge_19_18_0_0 edge_19_20_0_0 edge_19_21_0_0 edge_19_22_0_0 edge_19_23_0_0
 edge_19_26_0_0 edge_20_11_0_0 edge_20_17_0_0 edge_20_19_0_0 edge_20_21_0_0
 edge_20_22_0_0 edge_20_23_0_0 edge_20_26_0_0 edge_20_28_0_0 edge_20_29_0_0
 edge_21_19_0_0 edge_21_20_0_0 edge_21_22_0_0 edge_22_23_0_0 edge_22_26_0_0
 edge_22_28_0_0 edge_23_12_0_0 edge_23_16_0_0 edge_23_17_0_0 edge_23_18_0_0
 edge_23_19_0_0 edge_23_20_0_0 edge_23_21_0_0 edge_23_22_0_0 edge_23_26_0_0
 edge_23_28_0_0 edge_23_29_0_0 edge_26_22_0_0 edge_26_28_0_0 edge_28_19_0_0
 edge_28_22_0_0 edge_28_23_0_0 edge_28_26_0_0 edge_28_29_0_0 edge_29_26_0_0
 edge_29_28_0_0
End
